10 100
0 -1 3 12 24 42 7 61 71 85 
-1 0 58 77 2 64 45 51 38 84 
3 58 0 51 19 70 46 65 20 16 
12 77 51 0 38 94 26 39 56 26 
24 2 19 38 0 62 71 85 11 48 
42 64 70 94 62 0 35 28 26 32 
7 45 46 26 71 35 0 98 20 48 
61 51 65 39 85 28 98 0 23 60 
71 38 20 56 11 26 20 23 0 -1 
85 84 16 26 48 32 48 60 -1 0 
